c A SAT instance generated from a 3-CNF formula that had 30 clauses and 10 variables
p cnf 10 30
-9 -1 -5 0
4 -9 7 0
-4 6 7 0
-3 -9 2 0
1 -8 -6 0
-1 5 3 0
-6 -1 9 0
7 -10 6 0
-3 5 7 0
-2 -5 -4 0
7 8 1 0
-10 8 6 0
8 -9 1 0
-6 -1 3 0
-1 -5 -10 0
-1 -3 4 0
8 -2 3 0
2 1 -10 0
-3 -6 -4 0
-6 3 -10 0
-5 -10 4 0
7 8 1 0
-10 2 -7 0
-6 5 4 0
1 4 6 0
-2 -10 9 0
9 -1 -4 0
-5 4 1 0
6 -3 1 0
-10 8 7 0
